/* Cplex Data generated on 2017-12-15 */

k = 78;

b = 39;

AtomicConstraints = {
	 <12, 1>,
	 <12, 11>,
	 <13, 1>,
	 <13, 11>,
	 <13, 23>,
	 <14, 23>,
	 <14, 30>,
	 <14, 31>,
	 <15, 23>,
	 <15, 30>,
	 <15, 31>,
	 <15, 32>,
	 <16, 30>,
	 <16, 31>,
	 <16, 32>,
	 <16, 33>,
	 <17, 31>,
	 <17, 32>,
	 <17, 33>,
	 <17, 34>,
	 <18, 2>,
	 <18, 32>,
	 <18, 33>,
	 <18, 34>,
	 <19, 2>,
	 <19, 3>,
	 <19, 33>,
	 <19, 34>,
	 <20, 2>,
	 <20, 3>,
	 <20, 4>,
	 <20, 34>,
	 <21, 2>,
	 <21, 3>,
	 <21, 4>,
	 <21, 5>,
	 <22, 3>,
	 <22, 4>,
	 <22, 5>,
	 <22, 6>,
	 <24, 4>,
	 <24, 5>,
	 <24, 6>,
	 <24, 7>,
	 <25, 5>,
	 <25, 6>,
	 <25, 7>,
	 <25, 8>,
	 <26, 6>,
	 <26, 7>,
	 <26, 8>,
	 <27, 7>,
	 <27, 8>,
	 <27, 9>,
	 <28, 9>,
	 <28, 10>,
	 <29, 9>,
	 <29, 10>,
	 <53, 70>,
	 <53, 62>,
	 <53, 69>,
	 <54, 70>,
	 <54, 62>,
	 <54, 69>,
	 <55, 70>,
	 <55, 69>,
	 <35, 67>,
	 <36, 67>,
	 <36, 68>,
	 <43, 70>,
	 <43, 67>,
	 <43, 68>,
	 <43, 48>,
	 <43, 49>,
	 <43, 54>,
	 <43, 55>,
	 <43, 35>,
	 <43, 36>,
	 <43, 69>,
	 <44, 70>,
	 <44, 67>,
	 <44, 68>,
	 <44, 48>,
	 <44, 49>,
	 <44, 55>,
	 <44, 35>,
	 <44, 36>,
	 <74, 67>,
	 <74, 68>,
	 <74, 48>,
	 <74, 49>,
	 <74, 35>,
	 <74, 36>,
	 <75, 67>,
	 <75, 68>,
	 <75, 48>,
	 <75, 49>,
	 <75, 35>,
	 <75, 36>,
	 <59, 53>,
	 <59, 70>,
	 <59, 67>,
	 <59, 68>,
	 <59, 48>,
	 <59, 49>,
	 <59, 54>,
	 <59, 55>,
	 <59, 35>,
	 <59, 36>,
	 <59, 62>,
	 <59, 69>,
	 <59, 43>,
	 <59, 41>,
	 <59, 42>,
	 <60, 53>,
	 <60, 70>,
	 <60, 67>,
	 <60, 68>,
	 <60, 48>,
	 <60, 49>,
	 <60, 54>,
	 <60, 55>,
	 <60, 35>,
	 <60, 36>,
	 <60, 62>,
	 <60, 69>,
	 <60, 43>,
	 <60, 44>,
	 <60, 41>,
	 <60, 42>,
	 <61, 70>,
	 <61, 67>,
	 <61, 68>,
	 <61, 48>,
	 <61, 49>,
	 <61, 54>,
	 <61, 55>,
	 <61, 35>,
	 <61, 36>,
	 <61, 69>,
	 <61, 43>,
	 <61, 44>,
	 <61, 74>,
	 <61, 42>,
	 <63, 70>,
	 <63, 67>,
	 <63, 68>,
	 <63, 48>,
	 <63, 49>,
	 <63, 55>,
	 <63, 35>,
	 <63, 36>,
	 <63, 43>,
	 <63, 44>,
	 <63, 74>,
	 <63, 75>,
	 <41, 53>,
	 <41, 70>,
	 <41, 67>,
	 <41, 68>,
	 <41, 48>,
	 <41, 49>,
	 <41, 54>,
	 <41, 55>,
	 <41, 35>,
	 <41, 36>,
	 <41, 62>,
	 <41, 69>,
	 <42, 53>,
	 <42, 70>,
	 <42, 67>,
	 <42, 68>,
	 <42, 48>,
	 <42, 49>,
	 <42, 54>,
	 <42, 55>,
	 <42, 35>,
	 <42, 36>,
	 <42, 62>,
	 <42, 69>,
	 <47, 70>,
	 <47, 67>,
	 <47, 68>,
	 <47, 48>,
	 <47, 49>,
	 <47, 55>,
	 <47, 35>,
	 <47, 36>,
	 <47, 43>,
	 <47, 44>,
	 <47, 74>,
	 <47, 75>,
	 <47, 60>,
	 <47, 61>,
	 <47, 63>,
	 <47, 42>,
	 <64, 53>,
	 <64, 70>,
	 <64, 67>,
	 <64, 68>,
	 <64, 48>,
	 <64, 49>,
	 <64, 54>,
	 <64, 55>,
	 <64, 35>,
	 <64, 36>,
	 <64, 62>,
	 <64, 69>,
	 <64, 59>,
	 <64, 43>,
	 <64, 44>,
	 <64, 74>,
	 <64, 75>,
	 <64, 60>,
	 <64, 61>,
	 <64, 63>,
	 <64, 41>,
	 <64, 42>,
	 <64, 47>,
	 <64, 45>,
	 <64, 46>,
	 <65, 70>,
	 <65, 67>,
	 <65, 68>,
	 <65, 48>,
	 <65, 49>,
	 <65, 54>,
	 <65, 55>,
	 <65, 35>,
	 <65, 36>,
	 <65, 69>,
	 <65, 59>,
	 <65, 43>,
	 <65, 44>,
	 <65, 74>,
	 <65, 75>,
	 <65, 60>,
	 <65, 61>,
	 <65, 63>,
	 <65, 41>,
	 <65, 42>,
	 <65, 47>,
	 <65, 45>,
	 <65, 46>,
	 <66, 70>,
	 <66, 67>,
	 <66, 68>,
	 <66, 48>,
	 <66, 49>,
	 <66, 55>,
	 <66, 35>,
	 <66, 36>,
	 <66, 43>,
	 <66, 44>,
	 <66, 74>,
	 <66, 75>,
	 <66, 60>,
	 <66, 61>,
	 <66, 63>,
	 <66, 42>,
	 <66, 47>,
	 <66, 46>,
	 <37, 67>,
	 <37, 68>,
	 <37, 48>,
	 <37, 49>,
	 <37, 35>,
	 <37, 36>,
	 <37, 44>,
	 <37, 74>,
	 <37, 75>,
	 <37, 63>,
	 <38, 67>,
	 <38, 68>,
	 <38, 48>,
	 <38, 49>,
	 <38, 35>,
	 <38, 36>,
	 <38, 74>,
	 <38, 75>,
	 <39, 67>,
	 <39, 68>,
	 <39, 48>,
	 <39, 49>,
	 <39, 36>,
	 <39, 75>,
	 <45, 53>,
	 <45, 70>,
	 <45, 67>,
	 <45, 68>,
	 <45, 48>,
	 <45, 49>,
	 <45, 54>,
	 <45, 55>,
	 <45, 35>,
	 <45, 36>,
	 <45, 62>,
	 <45, 69>,
	 <45, 59>,
	 <45, 43>,
	 <45, 44>,
	 <45, 74>,
	 <45, 75>,
	 <45, 60>,
	 <45, 61>,
	 <45, 63>,
	 <45, 41>,
	 <45, 42>,
	 <46, 70>,
	 <46, 67>,
	 <46, 68>,
	 <46, 48>,
	 <46, 49>,
	 <46, 54>,
	 <46, 55>,
	 <46, 35>,
	 <46, 36>,
	 <46, 69>,
	 <46, 59>,
	 <46, 43>,
	 <46, 44>,
	 <46, 74>,
	 <46, 75>,
	 <46, 60>,
	 <46, 61>,
	 <46, 63>,
	 <46, 41>,
	 <46, 42>,
	 <73, 67>,
	 <73, 68>,
	 <73, 48>,
	 <73, 49>,
	 <73, 35>,
	 <73, 36>,
	 <73, 43>,
	 <73, 44>,
	 <73, 74>,
	 <73, 75>,
	 <73, 61>,
	 <73, 63>,
	 <73, 47>,
	 <73, 65>,
	 <73, 66>,
	 <73, 37>,
	 <73, 38>,
	 <73, 39>,
	 <73, 46>,
	 <76, 67>,
	 <76, 68>,
	 <76, 48>,
	 <76, 49>,
	 <76, 35>,
	 <76, 36>,
	 <76, 44>,
	 <76, 74>,
	 <76, 75>,
	 <76, 63>,
	 <76, 47>,
	 <76, 66>,
	 <76, 37>,
	 <76, 38>,
	 <76, 39>,
	 <77, 67>,
	 <77, 68>,
	 <77, 48>,
	 <77, 49>,
	 <77, 35>,
	 <77, 36>,
	 <77, 74>,
	 <77, 75>,
	 <77, 37>,
	 <77, 38>,
	 <77, 39>,
	 <78, 67>,
	 <78, 68>,
	 <78, 48>,
	 <78, 49>,
	 <78, 35>,
	 <78, 36>,
	 <78, 74>,
	 <78, 75>,
	 <78, 37>,
	 <78, 38>,
	 <78, 39>,
	 <52, 67>,
	 <52, 68>,
	 <52, 48>,
	 <52, 49>,
	 <52, 36>,
	 <52, 75>,
	 <52, 38>,
	 <52, 39>,
	 <51, 68>,
	 <51, 48>,
	 <51, 49>,
	 <51, 39>,
	 <40, 48>,
	 <40, 49>,
	 <50, 49>,
	 <56, 70>,
	 <56, 67>,
	 <56, 68>,
	 <56, 48>,
	 <56, 49>,
	 <56, 54>,
	 <56, 55>,
	 <56, 35>,
	 <56, 36>,
	 <56, 69>,
	 <56, 59>,
	 <56, 43>,
	 <56, 44>,
	 <56, 74>,
	 <56, 75>,
	 <56, 60>,
	 <56, 61>,
	 <56, 63>,
	 <56, 41>,
	 <56, 42>,
	 <56, 64>,
	 <56, 47>,
	 <56, 65>,
	 <56, 66>,
	 <56, 37>,
	 <56, 38>,
	 <56, 39>,
	 <56, 45>,
	 <56, 46>,
	 <56, 73>,
	 <56, 71>,
	 <56, 72>,
	 <57, 70>,
	 <57, 67>,
	 <57, 68>,
	 <57, 48>,
	 <57, 49>,
	 <57, 55>,
	 <57, 35>,
	 <57, 36>,
	 <57, 43>,
	 <57, 44>,
	 <57, 74>,
	 <57, 75>,
	 <57, 60>,
	 <57, 61>,
	 <57, 63>,
	 <57, 42>,
	 <57, 64>,
	 <57, 47>,
	 <57, 65>,
	 <57, 66>,
	 <57, 37>,
	 <57, 38>,
	 <57, 39>,
	 <57, 45>,
	 <57, 46>,
	 <57, 73>,
	 <57, 76>,
	 <57, 71>,
	 <57, 72>,
	 <58, 67>,
	 <58, 68>,
	 <58, 48>,
	 <58, 49>,
	 <58, 35>,
	 <58, 36>,
	 <58, 43>,
	 <58, 44>,
	 <58, 74>,
	 <58, 75>,
	 <58, 61>,
	 <58, 63>,
	 <58, 47>,
	 <58, 65>,
	 <58, 66>,
	 <58, 37>,
	 <58, 38>,
	 <58, 39>,
	 <58, 46>,
	 <58, 73>,
	 <58, 76>,
	 <58, 77>,
	 <58, 72>,
	 <71, 70>,
	 <71, 67>,
	 <71, 68>,
	 <71, 48>,
	 <71, 49>,
	 <71, 54>,
	 <71, 55>,
	 <71, 35>,
	 <71, 36>,
	 <71, 69>,
	 <71, 59>,
	 <71, 43>,
	 <71, 44>,
	 <71, 74>,
	 <71, 75>,
	 <71, 60>,
	 <71, 61>,
	 <71, 63>,
	 <71, 41>,
	 <71, 42>,
	 <71, 64>,
	 <71, 47>,
	 <71, 65>,
	 <71, 66>,
	 <71, 37>,
	 <71, 38>,
	 <71, 39>,
	 <71, 45>,
	 <71, 46>,
	 <72, 70>,
	 <72, 67>,
	 <72, 68>,
	 <72, 48>,
	 <72, 49>,
	 <72, 55>,
	 <72, 35>,
	 <72, 36>,
	 <72, 43>,
	 <72, 44>,
	 <72, 74>,
	 <72, 75>,
	 <72, 60>,
	 <72, 61>,
	 <72, 63>,
	 <72, 42>,
	 <72, 64>,
	 <72, 47>,
	 <72, 65>,
	 <72, 66>,
	 <72, 37>,
	 <72, 38>,
	 <72, 39>,
	 <72, 45>,
	 <72, 46>,
	 }; 

SoftAtomicConstraints = {
	 <34, 2>,
	 <2, 3>,
	 <3, 4>,
	 <4, 5>,
	 <5, 6>,
	 <6, 7>,
	 <7, 8>,
	 <8, 9>,
	 <9, 10>,
	 <1, 11>,
	 <12, 13>,
	 <13, 14>,
	 <14, 15>,
	 <15, 16>,
	 <16, 17>,
	 <17, 18>,
	 <18, 19>,
	 <19, 20>,
	 <20, 21>,
	 <21, 22>,
	 <11, 23>,
	 <22, 24>,
	 <24, 25>,
	 <25, 26>,
	 <26, 27>,
	 <27, 28>,
	 <28, 29>,
	 <23, 30>,
	 <30, 31>,
	 <31, 32>,
	 <32, 33>,
	 <33, 34>,
	 <55, 35>,
	 <35, 36>,
	 <66, 37>,
	 <37, 38>,
	 <38, 39>,
	 <51, 40>,
	 <41, 42>,
	 <42, 43>,
	 <43, 44>,
	 <45, 46>,
	 <46, 47>,
	 <68, 48>,
	 <48, 49>,
	 <40, 50>,
	 <52, 51>,
	 <78, 52>,
	 <53, 54>,
	 <54, 55>,
	 <56, 57>,
	 <57, 58>,
	 <59, 60>,
	 <60, 61>,
	 <61, 63>,
	 <64, 65>,
	 <65, 66>,
	 <70, 67>,
	 <67, 68>,
	 <62, 69>,
	 <69, 70>,
	 <71, 72>,
	 <72, 73>,
	 <44, 74>,
	 <74, 75>,
	 <73, 76>,
	 <76, 77>,
	 <77, 78>,
	 }; 

DisjunctiveConstraints = {
	 <2, 34, 2, 3>,
	 <3, 2, 3, 4>,
	 <4, 3, 4, 5>,
	 <5, 4, 5, 6>,
	 <6, 5, 6, 7>,
	 <7, 6, 7, 8>,
	 <8, 7, 8, 9>,
	 <9, 8, 9, 10>,
	 <13, 12, 13, 14>,
	 <11, 1, 11, 23>,
	 <14, 13, 14, 15>,
	 <15, 14, 15, 16>,
	 <16, 15, 16, 17>,
	 <17, 16, 17, 18>,
	 <18, 17, 18, 19>,
	 <19, 18, 19, 20>,
	 <20, 19, 20, 21>,
	 <21, 20, 21, 22>,
	 <22, 21, 22, 24>,
	 <24, 22, 24, 25>,
	 <25, 24, 25, 26>,
	 <26, 25, 26, 27>,
	 <27, 26, 27, 28>,
	 <28, 27, 28, 29>,
	 <23, 11, 23, 30>,
	 <30, 23, 30, 31>,
	 <31, 30, 31, 32>,
	 <32, 31, 32, 33>,
	 <33, 32, 33, 34>,
	 <34, 33, 34, 2>,
	 <68, 67, 68, 48>,
	 <48, 68, 48, 49>,
	 <54, 53, 54, 55>,
	 <55, 54, 55, 35>,
	 <35, 55, 35, 36>,
	 <69, 62, 69, 70>,
	 <43, 16, 43, 55>,
	 <43, 31, 43, 70>,
	 <43, 54, 15, 43>,
	 <43, 69, 30, 43>,
	 <43, 42, 43, 44>,
	 <44, 70, 31, 44>,
	 <44, 55, 16, 44>,
	 <44, 43, 44, 74>,
	 <74, 44, 74, 75>,
	 <75, 28, 75, 67>,
	 <75, 35, 74, 75>,
	 <59, 14, 59, 53>,
	 <59, 15, 59, 54>,
	 <59, 23, 59, 62>,
	 <59, 30, 59, 69>,
	 <60, 15, 60, 54>,
	 <60, 16, 60, 55>,
	 <60, 30, 60, 69>,
	 <60, 31, 60, 70>,
	 <60, 53, 14, 60>,
	 <60, 62, 23, 60>,
	 <60, 59, 60, 61>,
	 <61, 16, 61, 55>,
	 <61, 31, 61, 70>,
	 <61, 54, 15, 61>,
	 <61, 62, 23, 61>,
	 <61, 69, 30, 61>,
	 <61, 60, 61, 63>,
	 <63, 70, 31, 63>,
	 <63, 54, 15, 63>,
	 <63, 55, 16, 63>,
	 <63, 69, 30, 63>,
	 <41, 14, 41, 53>,
	 <41, 15, 41, 54>,
	 <41, 23, 41, 62>,
	 <41, 30, 41, 69>,
	 <42, 15, 42, 54>,
	 <42, 16, 42, 55>,
	 <42, 30, 42, 69>,
	 <42, 31, 42, 70>,
	 <42, 53, 14, 42>,
	 <42, 62, 23, 42>,
	 <42, 41, 42, 43>,
	 <47, 4, 47, 43>,
	 <47, 5, 47, 44>,
	 <47, 22, 47, 61>,
	 <47, 24, 47, 63>,
	 <47, 53, 14, 47>,
	 <47, 62, 23, 47>,
	 <47, 60, 21, 47>,
	 <47, 41, 2, 47>,
	 <47, 42, 3, 47>,
	 <64, 2, 64, 41>,
	 <64, 3, 64, 42>,
	 <64, 15, 64, 54>,
	 <64, 20, 64, 59>,
	 <64, 21, 64, 60>,
	 <64, 30, 64, 69>,
	 <65, 3, 65, 42>,
	 <65, 4, 65, 43>,
	 <65, 16, 65, 55>,
	 <65, 21, 65, 60>,
	 <65, 22, 65, 61>,
	 <65, 31, 65, 70>,
	 <65, 59, 20, 65>,
	 <65, 41, 2, 65>,
	 <65, 64, 65, 66>,
	 <66, 4, 66, 43>,
	 <66, 5, 66, 44>,
	 <66, 22, 66, 61>,
	 <66, 24, 66, 63>,
	 <66, 53, 14, 66>,
	 <66, 59, 20, 66>,
	 <66, 60, 21, 66>,
	 <66, 41, 2, 66>,
	 <66, 42, 3, 66>,
	 <66, 65, 66, 37>,
	 <37, 70, 31, 37>,
	 <37, 54, 15, 37>,
	 <37, 55, 16, 37>,
	 <37, 35, 37, 74>,
	 <37, 69, 30, 37>,
	 <37, 43, 4, 37>,
	 <37, 44, 5, 37>,
	 <37, 63, 24, 37>,
	 <37, 66, 37, 38>,
	 <38, 28, 38, 67>,
	 <38, 70, 31, 38>,
	 <38, 55, 16, 38>,
	 <38, 36, 38, 75>,
	 <38, 44, 5, 38>,
	 <38, 74, 35, 38>,
	 <38, 37, 38, 39>,
	 <39, 29, 39, 68>,
	 <39, 35, 74, 39>,
	 <39, 74, 35, 39>,
	 <39, 75, 36, 39>,
	 <45, 2, 45, 41>,
	 <45, 3, 45, 42>,
	 <45, 15, 45, 54>,
	 <45, 20, 45, 59>,
	 <45, 21, 45, 60>,
	 <45, 30, 45, 69>,
	 <46, 3, 46, 42>,
	 <46, 4, 46, 43>,
	 <46, 16, 46, 55>,
	 <46, 21, 46, 60>,
	 <46, 22, 46, 61>,
	 <46, 31, 46, 70>,
	 <46, 59, 20, 46>,
	 <46, 41, 2, 46>,
	 <46, 45, 46, 47>,
	 <73, 5, 73, 44>,
	 <73, 24, 73, 63>,
	 <73, 27, 73, 66>,
	 <73, 59, 20, 73>,
	 <73, 47, 73, 8>,
	 <73, 65, 26, 73>,
	 <73, 45, 6, 73>,
	 <73, 46, 7, 73>,
	 <73, 72, 73, 76>,
	 <76, 59, 20, 76>,
	 <76, 60, 21, 76>,
	 <76, 41, 2, 76>,
	 <76, 42, 3, 76>,
	 <76, 47, 8, 76>,
	 <76, 66, 27, 76>,
	 <76, 46, 7, 76>,
	 <76, 73, 76, 77>,
	 <77, 28, 77, 67>,
	 <77, 53, 14, 77>,
	 <77, 35, 77, 74>,
	 <77, 62, 23, 77>,
	 <77, 43, 4, 77>,
	 <77, 60, 21, 77>,
	 <77, 61, 22, 77>,
	 <77, 42, 3, 77>,
	 <77, 47, 8, 77>,
	 <77, 37, 77, 76>,
	 <77, 76, 77, 78>,
	 <78, 28, 78, 67>,
	 <78, 29, 78, 68>,
	 <78, 54, 15, 78>,
	 <78, 36, 78, 75>,
	 <78, 69, 30, 78>,
	 <78, 43, 4, 78>,
	 <78, 44, 5, 78>,
	 <78, 61, 22, 78>,
	 <78, 63, 24, 78>,
	 <78, 37, 76, 78>,
	 <78, 38, 78, 77>,
	 <78, 77, 78, 52>,
	 <52, 9, 52, 48>,
	 <52, 29, 52, 68>,
	 <52, 70, 31, 52>,
	 <52, 55, 16, 52>,
	 <52, 44, 5, 52>,
	 <52, 74, 35, 52>,
	 <52, 63, 24, 52>,
	 <52, 38, 77, 52>,
	 <52, 39, 52, 78>,
	 <52, 78, 52, 51>,
	 <51, 9, 51, 48>,
	 <51, 49, 51, 10>,
	 <51, 74, 35, 51>,
	 <51, 75, 36, 51>,
	 <51, 39, 78, 51>,
	 <51, 52, 51, 40>,
	 <40, 49, 40, 10>,
	 <40, 35, 74, 40>,
	 <40, 75, 36, 40>,
	 <40, 51, 40, 50>,
	 <50, 36, 75, 50>,
	 <56, 3, 56, 42>,
	 <56, 15, 56, 54>,
	 <56, 16, 56, 55>,
	 <56, 21, 56, 60>,
	 <56, 25, 56, 64>,
	 <56, 26, 56, 65>,
	 <56, 30, 56, 69>,
	 <56, 31, 56, 70>,
	 <56, 45, 56, 6>,
	 <56, 46, 56, 7>,
	 <57, 4, 57, 43>,
	 <57, 16, 57, 55>,
	 <57, 22, 57, 61>,
	 <57, 26, 57, 65>,
	 <57, 27, 57, 66>,
	 <57, 47, 57, 8>,
	 <57, 64, 25, 57>,
	 <57, 45, 6, 57>,
	 <57, 46, 57, 7>,
	 <57, 56, 57, 58>,
	 <58, 5, 58, 44>,
	 <58, 24, 58, 63>,
	 <58, 27, 58, 66>,
	 <58, 47, 58, 8>,
	 <58, 64, 25, 58>,
	 <58, 65, 26, 58>,
	 <58, 45, 6, 58>,
	 <58, 46, 7, 58>,
	 <71, 3, 71, 42>,
	 <71, 15, 71, 54>,
	 <71, 16, 71, 55>,
	 <71, 21, 71, 60>,
	 <71, 25, 71, 64>,
	 <71, 26, 71, 65>,
	 <71, 30, 71, 69>,
	 <71, 31, 71, 70>,
	 <71, 45, 71, 6>,
	 <71, 46, 71, 7>,
	 <72, 4, 72, 43>,
	 <72, 16, 72, 55>,
	 <72, 22, 72, 61>,
	 <72, 26, 72, 65>,
	 <72, 27, 72, 66>,
	 <72, 31, 72, 70>,
	 <72, 47, 72, 8>,
	 <72, 64, 25, 72>,
	 <72, 45, 6, 72>,
	 <72, 46, 72, 7>,
	 <72, 71, 72, 73>,
	 }; 

DirectSuccessors = {
	 }; 

